
        $ From http://www.csplib.org/Problems/prob009/data/helmut.pdf
        $ Problem number 111
        $ Sequence length : 25
        language ESSENCE' 1.0
        letting sizemaster be 378
        letting sizes be sequence(1,2,7,13,15,17,18,25,27,29,30,31,42,43,46,56,61,68,73,93,100,105,112,161,217)
        